30,50
16,43
43,17
50,80
16,17
70,60
90,80
90,30
30,10
10,30
50,30
110,50
110,10
130,30
70,100
44,42
22,47
37,47
12,37
11,23
23,13
38,12
48,22
48,36
102,13
96,17
91,23
92,36
95,43
102,48
116,47
122,42
126,38
129,24
126,18
120,12
62,62
55,65
50,72
80,62
85,67
89,73
51,86
55,92
61,97
84,95
88,87